INCAR created by Atomic Simulation Environment
 ENCUT = 300.000000
 PREC = Normal
 RWIGS = 1.5000 
 LREAL = .FALSE.
