KPOINTS created by Atomic Simulation Environemnt
0
Monkhorst-Pack
8 8 8 
0 0 0
